
===== New CPLEX run =====
Instance: /home/yorig/tuner/mpils-tests/instances/miplib/easy/lotsize.mps
Config: /scratch/yorig/mpils-results-grid-seconds-5-no-mip-start/easy/16proc/seed-3/4_lotsize_seed-3_20260502_223218/iterated_local_search/run_3_worker_0/ils_config_13762973462823504394.prm
========================

Selected objective sense:  MINIMIZE
Selected objective  name:  R1921
Selected RHS        name:  B
Selected bound      name:  BOUND
Version identifier: 22.1.2.0 | 2024-11-26 | 0edbb82fd
CPXPARAM_Threads                                 8
CPXPARAM_Parallel                                1
CPXPARAM_MIP_Cuts_Cliques                        2
CPXPARAM_MIP_Strategy_VariableSelect             2
CPXPARAM_MIP_Cuts_FlowCovers                     2
CPXPARAM_MIP_Cuts_Implied                        1
CPXPARAM_MIP_Limits_GomoryCand                   800
CPXPARAM_MIP_Cuts_Gomory                         -1
CPXPARAM_MIP_Cuts_PathCut                        1
CPXPARAM_MIP_Cuts_MIRCut                         2
CPXPARAM_MIP_Cuts_Disjunctive                    2
CPXPARAM_Emphasis_MIP                            1
CPXPARAM_MIP_Strategy_BBInterval                 4
CPXPARAM_TimeLimit                               5
Tried aggregator 1 time.
MIP Presolve eliminated 595 rows and 0 columns.
MIP Presolve added 1190 rows and 0 columns.
MIP Presolve modified 10 coefficients.
Reduced MIP has 2515 rows, 2985 columns, and 7755 nonzeros.
Reduced MIP has 1195 binaries, 0 generals, 0 SOSs, and 0 indicators.
Presolve time = 0.00 sec. (4.53 ticks)
Probing fixed 0 vars, tightened 5487 bounds.
Probing time = 0.01 sec. (18.38 ticks)
Tried aggregator 2 times.
Detecting symmetries...
MIP Presolve modified 1206 coefficients.
Aggregator did 10 substitutions.
Reduced MIP has 2505 rows, 2975 columns, and 7735 nonzeros.
Reduced MIP has 1195 binaries, 0 generals, 0 SOSs, and 0 indicators.
Presolve time = 0.00 sec. (6.66 ticks)
Probing fixed 0 vars, tightened 2401 bounds.
Probing time = 0.00 sec. (6.41 ticks)
Clique table members: 190.
MIP emphasis: integer feasibility.
MIP search method: dynamic search.
Parallel mode: deterministic, using up to 8 threads.
Root relaxation solution time = 0.01 sec. (9.71 ticks)

        Nodes                                         Cuts/
   Node  Left     Objective  IInf  Best Integer    Best Bound    ItCnt     Gap

      0     0   348385.3466   472                 348385.3466      882         
      0     0   583577.4049   435                   Cuts: 726     1819         
      0     0   818290.4051   692                   Cuts: 726     2653         
*     0+    0                       1.01740e+07   818290.4051            91.96%
*     0+    0                      7973370.0000   818290.4051            89.74%
      0     0   947113.9594   686  7973370.0000     Cuts: 726     3332   88.12%
Detecting symmetries...
      0     2   947113.9594   693  7973370.0000   949700.7247     3332   88.09%
Elapsed time = 0.74 sec. (1127.85 ticks, tree = 0.02 MB, solutions = 2)
      2     3   950056.6431   687  7973370.0000   949700.7247     3340   88.09%
      6     6   951722.7461   686  7973370.0000   950589.0934     3366   88.08%
     15    11  1008238.8382   727  7973370.0000   952765.6467     3960   88.05%
     21    19  1025706.0890   743  7973370.0000   953629.3299     4253   88.04%
     28    16  1062296.5306   736  7973370.0000   954623.1232     4151   88.03%
     95    43  1065578.5084   674  7973370.0000   954623.1232     9175   88.03%
    406   225  1096580.6419   692  7973370.0000   954623.1232    13549   88.03%
    666   526  1185149.9490   640  7973370.0000   954623.1232    18862   88.03%
    977   757  1392530.2399   453  7973370.0000   954623.1232    23569   88.03%

Performing restart 1

Repeating presolve.
Tried aggregator 1 time.
MIP Presolve modified 1224 coefficients.
Reduced MIP has 2505 rows, 2975 columns, and 7735 nonzeros.
Reduced MIP has 1195 binaries, 0 generals, 0 SOSs, and 0 indicators.
Presolve time = 0.00 sec. (3.85 ticks)
Tried aggregator 1 time.
MIP Presolve modified 1013 coefficients.
Reduced MIP has 2505 rows, 2975 columns, and 7735 nonzeros.
Reduced MIP has 1195 binaries, 0 generals, 0 SOSs, and 0 indicators.
Presolve time = 0.00 sec. (5.12 ticks)
Represolve time = 0.02 sec. (18.74 ticks)
   1767     0  1125752.6436   727  7973370.0000     Cuts: 726    49566   85.88%
   1767     0  1215404.5989   741  7973370.0000     Cuts: 726    50347   84.76%
   1767     0  1270296.6913   725  7973370.0000     Cuts: 726    51209   84.07%
*  1767+    0                      4967625.0000  1270296.6913            74.43%
*  1767+    0                      4781838.0000  1270296.6913            73.43%
   1767     0  -1.00000e+75     0  4781838.0000  1270296.6913    51209   73.43%
   1767     2  1270296.6913   728  4781838.0000  1270296.6913    51209   73.43%
Elapsed time = 4.95 sec. (6964.62 ticks, tree = 0.02 MB, solutions = 4)

Clique cuts applied:  1
Cover cuts applied:  26
Implied bound cuts applied:  13
Flow cuts applied:  841
Mixed integer rounding cuts applied:  1388
Flow path cuts applied:  44
Multi commodity flow cuts applied:  15
Lift and project cuts applied:  16
Disjunctive cuts applied:  0
Cone linearizations applied:  0

Root node processing (before b&c):
  Real time             =    0.43 sec. (610.79 ticks)
Parallel b&c, 8 threads:
  Real time             =    4.57 sec. (6458.33 ticks)
  Sync time (average)   =    0.86 sec.
  Wait time (average)   =    0.01 sec.
                          ------------
Total (root+branch&cut) =    5.01 sec. (7069.12 ticks)
Gap: 73.43%
Upper bound: 4.78184e+06
Lower bound: 1.27031e+06
End of CPLEX run. Time: 5.00712 seconds

===== New CPLEX run =====
Instance: /home/yorig/tuner/mpils-tests/instances/miplib/easy/lotsize.mps
Config: /scratch/yorig/mpils-results-grid-seconds-5-no-mip-start/easy/16proc/seed-3/4_lotsize_seed-3_20260502_223218/iterated_local_search/run_3_worker_0/ils_config_4328888991776455710.prm
========================

Selected objective sense:  MINIMIZE
Selected objective  name:  R1921
Selected RHS        name:  B
Selected bound      name:  BOUND
Version identifier: 22.1.2.0 | 2024-11-26 | 0edbb82fd
CPXPARAM_Threads                                 8
CPXPARAM_Parallel                                1
CPXPARAM_MIP_Cuts_Cliques                        2
CPXPARAM_MIP_Cuts_FlowCovers                     2
CPXPARAM_MIP_Cuts_Implied                        1
CPXPARAM_MIP_Limits_GomoryCand                   800
CPXPARAM_MIP_Cuts_Gomory                         -1
CPXPARAM_MIP_Cuts_PathCut                        1
CPXPARAM_MIP_Cuts_MIRCut                         2
CPXPARAM_MIP_Cuts_Disjunctive                    2
CPXPARAM_Emphasis_MIP                            5
CPXPARAM_MIP_Strategy_BBInterval                 4
CPXPARAM_TimeLimit                               5
Tried aggregator 1 time.
MIP Presolve eliminated 595 rows and 0 columns.
MIP Presolve added 1190 rows and 0 columns.
MIP Presolve modified 10 coefficients.
Reduced MIP has 2515 rows, 2985 columns, and 7755 nonzeros.
Reduced MIP has 1195 binaries, 0 generals, 0 SOSs, and 0 indicators.
Presolve time = 0.00 sec. (4.53 ticks)
Probing fixed 0 vars, tightened 5487 bounds.
Probing time = 0.01 sec. (18.38 ticks)
Tried aggregator 2 times.
Detecting symmetries...
MIP Presolve modified 1206 coefficients.
Aggregator did 10 substitutions.
Reduced MIP has 2505 rows, 2975 columns, and 7735 nonzeros.
Reduced MIP has 1195 binaries, 0 generals, 0 SOSs, and 0 indicators.
Presolve time = 0.00 sec. (6.66 ticks)
Probing fixed 0 vars, tightened 2401 bounds.
Probing time = 0.00 sec. (6.41 ticks)
Clique table members: 190.
MIP emphasis: heuristic.
MIP search method: dynamic search.
Parallel mode: deterministic, using up to 8 threads.
Root relaxation solution time = 0.01 sec. (9.71 ticks)

        Nodes                                         Cuts/
   Node  Left     Objective  IInf  Best Integer    Best Bound    ItCnt     Gap

      0     0   348385.3466   472                 348385.3466      882         
*     0+    0                       1.40386e+07   348385.3466            97.52%
*     0+    0                       1.01740e+07   348385.3466            96.58%
*     0+    0                      7973370.0000   348385.3466            95.63%
      0     0   583577.4049   435  7973370.0000     Cuts: 726     1819   87.04%
*     0+    0                      1940615.0000  1033690.5880            46.73%
      0     0   816191.4540   706  1940615.0000     Cuts: 726     2644   43.37%
      0     0   994551.6763   738  1940615.0000     Cuts: 726     3405   40.76%
      0     0  1116637.1241   739  1940615.0000     Cuts: 726     4050   38.94%
      0     0  1198075.4601   746  1940615.0000     Cuts: 726     4693   36.56%
Detecting symmetries...
      0     0  1247055.6451   769  1940615.0000     Cuts: 726     5393   35.06%
      0     0  1269445.3933   759  1940615.0000     Cuts: 609     5979   33.94%
*     0+    0                      1936754.0000  1281903.6912            33.81%
      0     0  1283346.9111   802  1936754.0000     Cuts: 530     6495   32.95%
      0     0  1296544.1066   795  1936754.0000     Cuts: 498     6976   32.51%
*     0+    0                      1930909.0000  1307157.8781            32.30%
      0     0  1306425.4826   839  1930909.0000     Cuts: 450     7374   32.14%
*     0+    0                      1922023.0000  1310283.0448            31.83%
      0     0  1315332.5593   817  1922023.0000     Cuts: 389     7697   31.57%
*     0+    0                      1781765.0000  1315332.5593            26.18%
      0     0  1319422.0987   849  1781765.0000     Cuts: 266     7990   25.95%
      0     0  1321436.6376   841  1781765.0000     Cuts: 252     8201   25.84%

Clique cuts applied:  0
Cover cuts applied:  15
Implied bound cuts applied:  35
Flow cuts applied:  481
Mixed integer rounding cuts applied:  1127
Flow path cuts applied:  46
Multi commodity flow cuts applied:  32
Disjunctive cuts applied:  0
Cone linearizations applied:  0

Root node processing (before b&c):
  Real time             =    5.01 sec. (8184.27 ticks)
Parallel b&c, 8 threads:
  Real time             =    0.00 sec. (0.00 ticks)
  Sync time (average)   =    0.00 sec.
  Wait time (average)   =    0.00 sec.
                          ------------
Total (root+branch&cut) =    5.01 sec. (8184.27 ticks)
Gap: 25.84%
Upper bound: 1.78176e+06
Lower bound: 1.32144e+06
End of CPLEX run. Time: 5.01164 seconds

===== New CPLEX run =====
Instance: /home/yorig/tuner/mpils-tests/instances/miplib/easy/lotsize.mps
Config: /scratch/yorig/mpils-results-grid-seconds-5-no-mip-start/easy/16proc/seed-3/4_lotsize_seed-3_20260502_223218/iterated_local_search/run_3_worker_0/ils_config_4581567895595666635.prm
========================

Selected objective sense:  MINIMIZE
Selected objective  name:  R1921
Selected RHS        name:  B
Selected bound      name:  BOUND
Version identifier: 22.1.2.0 | 2024-11-26 | 0edbb82fd
CPXPARAM_Threads                                 8
CPXPARAM_Parallel                                1
CPXPARAM_MIP_Cuts_Cliques                        2
CPXPARAM_MIP_Strategy_SubAlgorithm               2
CPXPARAM_MIP_Cuts_FlowCovers                     2
CPXPARAM_MIP_Cuts_Implied                        1
CPXPARAM_MIP_Limits_GomoryCand                   800
CPXPARAM_MIP_Cuts_Gomory                         -1
CPXPARAM_MIP_Cuts_PathCut                        1
CPXPARAM_MIP_Cuts_MIRCut                         2
CPXPARAM_MIP_Cuts_Disjunctive                    2
CPXPARAM_Emphasis_MIP                            1
CPXPARAM_MIP_Strategy_BBInterval                 4
CPXPARAM_TimeLimit                               5
Tried aggregator 1 time.
MIP Presolve eliminated 595 rows and 0 columns.
MIP Presolve added 1190 rows and 0 columns.
MIP Presolve modified 10 coefficients.
Reduced MIP has 2515 rows, 2985 columns, and 7755 nonzeros.
Reduced MIP has 1195 binaries, 0 generals, 0 SOSs, and 0 indicators.
Presolve time = 0.00 sec. (4.53 ticks)
Probing fixed 0 vars, tightened 5487 bounds.
Probing time = 0.01 sec. (18.38 ticks)
Tried aggregator 2 times.
Detecting symmetries...
MIP Presolve modified 1206 coefficients.
Aggregator did 10 substitutions.
Reduced MIP has 2505 rows, 2975 columns, and 7735 nonzeros.
Reduced MIP has 1195 binaries, 0 generals, 0 SOSs, and 0 indicators.
Presolve time = 0.00 sec. (6.66 ticks)
Probing fixed 0 vars, tightened 2401 bounds.
Probing time = 0.00 sec. (6.41 ticks)
Clique table members: 190.
MIP emphasis: integer feasibility.
MIP search method: dynamic search.
Parallel mode: deterministic, using up to 8 threads.
Root relaxation solution time = 0.01 sec. (9.71 ticks)

        Nodes                                         Cuts/
   Node  Left     Objective  IInf  Best Integer    Best Bound    ItCnt     Gap

      0     0   348385.3466   472                 348385.3466      882         
      0     0   583577.4049   435                   Cuts: 726     1819         
      0     0   818290.4051   692                   Cuts: 726     2653         
*     0+    0                       1.01740e+07   818290.4051            91.96%
*     0+    0                      7973370.0000   818290.4051            89.74%
      0     0   947113.9594   686  7973370.0000     Cuts: 726     3332   88.12%
Detecting symmetries...
      0     2   947113.9594   686  7973370.0000   949700.7247     3332   88.09%
Elapsed time = 0.44 sec. (613.28 ticks, tree = 0.02 MB, solutions = 2)
    429   393   999212.8472   595  7973370.0000   949700.7247     7651   88.09%
   1024   831  1146818.7408   469  7973370.0000   949700.7247    13905   88.09%

Performing restart 1

Repeating presolve.
Tried aggregator 1 time.
MIP Presolve modified 1156 coefficients.
Reduced MIP has 2505 rows, 2975 columns, and 7735 nonzeros.
Reduced MIP has 1195 binaries, 0 generals, 0 SOSs, and 0 indicators.
Presolve time = 0.00 sec. (3.78 ticks)
Tried aggregator 1 time.
MIP Presolve modified 1023 coefficients.
Reduced MIP has 2505 rows, 2975 columns, and 7735 nonzeros.
Reduced MIP has 1195 binaries, 0 generals, 0 SOSs, and 0 indicators.
Presolve time = 0.00 sec. (5.12 ticks)
Represolve time = 0.02 sec. (18.91 ticks)
   1738     0  1070214.8248   702  7973370.0000     Cuts: 726    27978   86.58%
   1738     0  1165198.3647   693  7973370.0000     Cuts: 726    28821   85.39%
   1738     0  1234987.6657   687  7973370.0000     Cuts: 726    29661   84.51%
   1738     2  1234987.6657   687  7973370.0000  1234987.6657    29661   84.51%
   1756    20  1328013.4883   568  7973370.0000  1235146.5611    30362   84.51%
   1778    42  1340941.5650   524  7973370.0000  1235146.5611    30893   84.51%
   1820    82  1380459.1774   465  7973370.0000  1235146.5611    31930   84.51%
   1826     8  1329154.1230   681  7973370.0000  1235743.5270    30010   84.50%
   1838    99  1510639.6376   526  7973370.0000  1235743.5270    36818   84.50%
   1882   142  1573207.4245   419  7973370.0000  1267254.4862    48935   84.11%
*  2129+  189                      1821555.0000  1311144.0615            28.02%
   2466   488  1523679.5920   515  1821555.0000  1311144.0615    84828   28.02%
Elapsed time = 4.24 sec. (5447.46 ticks, tree = 0.62 MB, solutions = 3)
*  2871+  912                      1737534.0000  1311144.0615            24.54%
*  2875+  912                      1705249.0000  1311144.0615            23.11%
*  3175+ 1107                      1694705.0000  1311144.0615            22.63%
*  3180+ 1096                      1632178.0000  1311144.0615            19.67%
*  3234+ 1035                      1612419.0000  1311144.0615            18.68%

Clique cuts applied:  1
Cover cuts applied:  23
Implied bound cuts applied:  11
Flow cuts applied:  1190
Mixed integer rounding cuts applied:  1475
Flow path cuts applied:  78
Multi commodity flow cuts applied:  24
Lift and project cuts applied:  20
Disjunctive cuts applied:  0
Cone linearizations applied:  0

Root node processing (before b&c):
  Real time             =    0.44 sec. (610.99 ticks)
Parallel b&c, 8 threads:
  Real time             =    4.57 sec. (5807.75 ticks)
  Sync time (average)   =    0.33 sec.
  Wait time (average)   =    0.00 sec.
                          ------------
Total (root+branch&cut) =    5.01 sec. (6418.74 ticks)
Gap: 18.68%
Upper bound: 1.61242e+06
Lower bound: 1.31114e+06
End of CPLEX run. Time: 5.00806 seconds

===== New CPLEX run =====
Instance: /home/yorig/tuner/mpils-tests/instances/miplib/easy/lotsize.mps
Config: /scratch/yorig/mpils-results-grid-seconds-5-no-mip-start/easy/16proc/seed-3/4_lotsize_seed-3_20260502_223218/iterated_local_search/run_3_worker_0/ils_config_15492685631390781355.prm
========================

Selected objective sense:  MINIMIZE
Selected objective  name:  R1921
Selected RHS        name:  B
Selected bound      name:  BOUND
Version identifier: 22.1.2.0 | 2024-11-26 | 0edbb82fd
CPXPARAM_Threads                                 8
CPXPARAM_Parallel                                1
CPXPARAM_MIP_Cuts_Cliques                        2
CPXPARAM_MIP_Strategy_VariableSelect             -1
CPXPARAM_MIP_Cuts_FlowCovers                     2
CPXPARAM_MIP_Cuts_Implied                        1
CPXPARAM_MIP_Limits_GomoryCand                   800
CPXPARAM_MIP_Cuts_Gomory                         -1
CPXPARAM_MIP_Cuts_PathCut                        1
CPXPARAM_MIP_Cuts_MIRCut                         2
CPXPARAM_MIP_Cuts_Disjunctive                    2
CPXPARAM_Emphasis_MIP                            1
CPXPARAM_MIP_Strategy_BBInterval                 4
CPXPARAM_TimeLimit                               5
Tried aggregator 1 time.
MIP Presolve eliminated 595 rows and 0 columns.
MIP Presolve added 1190 rows and 0 columns.
MIP Presolve modified 10 coefficients.
Reduced MIP has 2515 rows, 2985 columns, and 7755 nonzeros.
Reduced MIP has 1195 binaries, 0 generals, 0 SOSs, and 0 indicators.
Presolve time = 0.00 sec. (4.53 ticks)
Probing fixed 0 vars, tightened 5487 bounds.
Probing time = 0.01 sec. (18.38 ticks)
Tried aggregator 2 times.
Detecting symmetries...
MIP Presolve modified 1206 coefficients.
Aggregator did 10 substitutions.
Reduced MIP has 2505 rows, 2975 columns, and 7735 nonzeros.
Reduced MIP has 1195 binaries, 0 generals, 0 SOSs, and 0 indicators.
Presolve time = 0.00 sec. (6.66 ticks)
Probing fixed 0 vars, tightened 2401 bounds.
Probing time = 0.00 sec. (6.41 ticks)
Clique table members: 190.
MIP emphasis: integer feasibility.
MIP search method: dynamic search.
Parallel mode: deterministic, using up to 8 threads.
Root relaxation solution time = 0.01 sec. (9.71 ticks)

        Nodes                                         Cuts/
   Node  Left     Objective  IInf  Best Integer    Best Bound    ItCnt     Gap

      0     0   348385.3466   472                 348385.3466      882         
      0     0   583577.4049   435                   Cuts: 726     1819         
      0     0   818290.4051   692                   Cuts: 726     2653         
*     0+    0                       1.01740e+07   818290.4051            91.96%
*     0+    0                      7973370.0000   818290.4051            89.74%
      0     0   947113.9594   686  7973370.0000     Cuts: 726     3332   88.12%
Detecting symmetries...
      0     2   947113.9594   686  7973370.0000   949700.7247     3332   88.09%
Elapsed time = 0.44 sec. (613.17 ticks, tree = 0.02 MB, solutions = 2)
    145   125  1063316.0952   691  7973370.0000   949700.7247    12862   88.09%
    844   696  1274420.5174   534  7973370.0000   949700.7247    20883   88.09%
   1678  1472  1387065.1506   384  7973370.0000   949700.7247    28405   88.09%

Performing restart 1

Repeating presolve.
Tried aggregator 1 time.
MIP Presolve modified 1240 coefficients.
Reduced MIP has 2505 rows, 2975 columns, and 7735 nonzeros.
Reduced MIP has 1195 binaries, 0 generals, 0 SOSs, and 0 indicators.
Presolve time = 0.00 sec. (3.86 ticks)
Tried aggregator 1 time.
MIP Presolve modified 1017 coefficients.
Reduced MIP has 2505 rows, 2975 columns, and 7735 nonzeros.
Reduced MIP has 1195 binaries, 0 generals, 0 SOSs, and 0 indicators.
Presolve time = 0.00 sec. (5.12 ticks)
Represolve time = 0.02 sec. (18.78 ticks)
   1738     0  1129834.5846   744  7973370.0000     Cuts: 726    34839   85.83%
   1738     0  1206794.0203   729  7973370.0000     Cuts: 726    35637   84.86%
   1738     0  1257851.9999   715  7973370.0000     Cuts: 726    36296   84.22%
   1738     2  1257851.9999   715  7973370.0000  1257851.9999    36296   84.22%
   1764    28  1295941.0849   639  7973370.0000  1258971.4664    36930   84.21%
   1798    62  1296791.7135   602  7973370.0000  1258971.4664    37439   84.21%
   1837   101  1306526.5056   569  7973370.0000  1258971.4664    38044   84.21%
   1856   110  1337086.7587   733  7973370.0000  1258971.4664    39430   84.21%
   1862   119  1337030.6038   776  7973370.0000  1258971.4664    39898   84.21%
   2041   217  1340731.6749   735  7973370.0000  1268682.3270    70878   84.09%
Elapsed time = 4.24 sec. (5379.54 ticks, tree = 0.21 MB, solutions = 2)
*  2447+  496                      3617183.0000  1268682.3270            64.93%
*  2453+  496                      3116063.0000  1268682.3270            59.29%
*  2459+  496                      2944297.0000  1268682.3270            56.91%
*  2469+  496                      2943805.0000  1268682.3270            56.90%
*  2501+  596                      2900653.0000  1268682.3270            56.26%

Clique cuts applied:  1
Cover cuts applied:  22
Implied bound cuts applied:  14
Flow cuts applied:  801
Mixed integer rounding cuts applied:  1044
Flow path cuts applied:  57
Multi commodity flow cuts applied:  22
Lift and project cuts applied:  19
Disjunctive cuts applied:  0
Cone linearizations applied:  0

Root node processing (before b&c):
  Real time             =    0.44 sec. (610.99 ticks)
Parallel b&c, 8 threads:
  Real time             =    4.57 sec. (5571.75 ticks)
  Sync time (average)   =    0.55 sec.
  Wait time (average)   =    0.01 sec.
                          ------------
Total (root+branch&cut) =    5.00 sec. (6182.74 ticks)
Gap: 56.26%
Upper bound: 2.90065e+06
Lower bound: 1.26868e+06
End of CPLEX run. Time: 5.00529 seconds

===== New CPLEX run =====
Instance: /home/yorig/tuner/mpils-tests/instances/miplib/easy/lotsize.mps
Config: /scratch/yorig/mpils-results-grid-seconds-5-no-mip-start/easy/16proc/seed-3/4_lotsize_seed-3_20260502_223218/iterated_local_search/run_3_worker_0/ils_config_7865523563505511288.prm
========================

Selected objective sense:  MINIMIZE
Selected objective  name:  R1921
Selected RHS        name:  B
Selected bound      name:  BOUND
Version identifier: 22.1.2.0 | 2024-11-26 | 0edbb82fd
CPXPARAM_Threads                                 8
CPXPARAM_Parallel                                1
CPXPARAM_MIP_Cuts_Cliques                        2
CPXPARAM_MIP_Strategy_SubAlgorithm               1
CPXPARAM_MIP_Cuts_FlowCovers                     2
CPXPARAM_MIP_Cuts_Implied                        1
CPXPARAM_MIP_Limits_GomoryCand                   800
CPXPARAM_MIP_Cuts_Gomory                         -1
CPXPARAM_MIP_Cuts_PathCut                        1
CPXPARAM_MIP_Cuts_MIRCut                         2
CPXPARAM_MIP_Cuts_Disjunctive                    2
CPXPARAM_Emphasis_MIP                            1
CPXPARAM_MIP_Strategy_BBInterval                 4
CPXPARAM_TimeLimit                               5
Tried aggregator 1 time.
MIP Presolve eliminated 595 rows and 0 columns.
MIP Presolve added 1190 rows and 0 columns.
MIP Presolve modified 10 coefficients.
Reduced MIP has 2515 rows, 2985 columns, and 7755 nonzeros.
Reduced MIP has 1195 binaries, 0 generals, 0 SOSs, and 0 indicators.
Presolve time = 0.00 sec. (4.53 ticks)
Probing fixed 0 vars, tightened 5487 bounds.
Probing time = 0.01 sec. (18.38 ticks)
Tried aggregator 2 times.
Detecting symmetries...
MIP Presolve modified 1206 coefficients.
Aggregator did 10 substitutions.
Reduced MIP has 2505 rows, 2975 columns, and 7735 nonzeros.
Reduced MIP has 1195 binaries, 0 generals, 0 SOSs, and 0 indicators.
Presolve time = 0.01 sec. (6.66 ticks)
Probing fixed 0 vars, tightened 2401 bounds.
Probing time = 0.00 sec. (6.41 ticks)
Clique table members: 190.
MIP emphasis: integer feasibility.
MIP search method: dynamic search.
Parallel mode: deterministic, using up to 8 threads.
Root relaxation solution time = 0.01 sec. (7.84 ticks)

        Nodes                                         Cuts/
   Node  Left     Objective  IInf  Best Integer    Best Bound    ItCnt     Gap

      0     0   348385.3466   472                 348385.3466      882         
      0     0   583577.4049   435                   Cuts: 726     3032         
*     0+    0                       1.04207e+07   583577.4049            94.40%
*     0+    0                      8230245.0000   583577.4049            92.91%
      0     0   818014.5416   688  8230245.0000     Cuts: 726     5291   89.97%
      0     0   950499.4599   697  8230245.0000     Cuts: 726     7108   88.44%
Detecting symmetries...
      0     2   950499.4599   697  8230245.0000   951500.3479     7108   88.44%
Elapsed time = 1.14 sec. (1475.90 ticks, tree = 0.02 MB, solutions = 2)
     83    73  1014980.4376   654  8230245.0000   951600.4306    11649   88.44%
    117   109  1036751.3602   681  8230245.0000   952374.8185    33626   88.43%
    241   194  1057300.7255   618  8230245.0000   952374.8185    44236   88.43%
    414   353  1071809.3309   561  8230245.0000   952374.8185    60325   88.43%
    565   490  1089013.8927   592  8230245.0000   952374.8185    71441   88.43%
    708   627  1111215.6596   500  8230245.0000   952374.8185    86926   88.43%
    881   805  1157430.7394   465  8230245.0000   952374.8185   103474   88.43%
   1124   921  1237736.7324   430  8230245.0000   952374.8185   115749   88.43%
   1399  1180  1331964.9988   338  8230245.0000   952374.8185   136043   88.43%

Performing restart 1

Repeating presolve.
Tried aggregator 1 time.
MIP Presolve modified 1208 coefficients.
Reduced MIP has 2505 rows, 2975 columns, and 7735 nonzeros.
Reduced MIP has 1195 binaries, 0 generals, 0 SOSs, and 0 indicators.
Presolve time = 0.00 sec. (3.83 ticks)
Tried aggregator 1 time.
MIP Presolve modified 1030 coefficients.
Reduced MIP has 2505 rows, 2975 columns, and 7735 nonzeros.
Reduced MIP has 1195 binaries, 0 generals, 0 SOSs, and 0 indicators.
Presolve time = 0.00 sec. (5.12 ticks)
Represolve time = 0.02 sec. (19.10 ticks)
*  1799+    0                      6882723.0000  1011356.4777            85.31%
   1799     0  1141101.8376   765  6882723.0000     Cuts: 726   173862   83.42%

Clique cuts applied:  1
Cover cuts applied:  30
Implied bound cuts applied:  14
Flow cuts applied:  720
Mixed integer rounding cuts applied:  1061
Flow path cuts applied:  98
Multi commodity flow cuts applied:  26
Lift and project cuts applied:  21
Disjunctive cuts applied:  0
Cone linearizations applied:  0

Root node processing (before b&c):
  Real time             =    1.13 sec. (1469.18 ticks)
Parallel b&c, 8 threads:
  Real time             =    3.87 sec. (4795.19 ticks)
  Sync time (average)   =    0.28 sec.
  Wait time (average)   =    0.00 sec.
                          ------------
Total (root+branch&cut) =    5.01 sec. (6264.37 ticks)
Gap: 82.4%
Upper bound: 6.88272e+06
Lower bound: 1.21166e+06
End of CPLEX run. Time: 5.00612 seconds
